1 -3 -4 0
1 -1 0
1 -3 -7 0
1 9 0
1 10 -1 0
1 11 12 0
1 -3 11 0
1 -12 0
1 -13 1 0
1 7 -4 0
1 -4 1 0
1 -12 0
1 -12 0
1 -15 -3 0
1 1 7 0
1 -17 0
1 15 0
1 -5 1 0
1 -5 -4 0
1 -4 10 0
1 5 0
1 -1 0
1 -3 7 0
1 8 0
1 10 21 0
1 4 0
1 -23 0
1 24 0
1 25 0
1 -3 12 0
1 -26 -24 0
1 12 -4 0
1 -28 0
1 -29 0
1 29 12 0
1 -25 -3 0
1 -31 -10 0
1 -4 5 0
1 12 1 0
1 10 -3 0
1 4 7 0
1 4 0
1 17 -7 0
1 -10 12 0
1 -7 28 0
1 20 0
1 -7 -10 0
1 -10 3 0
1 -12 0
1 34 0
1 35 0
1 -6 0
1 -12 0
1 -1 0
1 10 -4 0
1 -7 0
1 -34 3 0
1 7 -10 0
1 -12 0
1 16 0
1 26 0
1 -1 12 0
1 -39 0
1 17 4 0
1 -10 0
1 -39 0
1 -10 0
1 -12 0
1 7 -5 0
1 13 0
1 6 0
1 12 -5 0
1 -10 0
1 -41 0
1 -21 0
1 -3 -20 0
1 -42 0
1 43 0
1 -1 0
1 -7 0
1 10 7 0
1 10 39 0
1 1 12 0
1 -12 0
1 -5 12 0
1 5 0
1 -1 0
1 10 41 0
1 4 0
1 7 12 0
1 -4 3 0
1 7 -36 0
1 29 -12 0
1 5 0
1 23 -3 0
1 10 42 0
1 -4 -10 0
1 3 -1 0
1 1 -26 0
1 -5 -7 0
1 -5 10 0
1 -12 0
1 1 -10 0
1 19 0
1 -10 -3 0
1 -7 0
1 3 7 0
1 -7 0
1 40 0
1 -12 -7 -10 0
1 21 -40 0
1 4 0
1 -12 0
1 36 0
1 4 0
1 -35 -40 0
1 37 0
1 -12 0
1 36 7 0
1 -12 -19 0
1 -3 -37 0
1 3 0
1 -3 -10 0
1 10 12 0
1 7 1 0
1 -21 -3 0
1 -40 -3 0
1 34 4 0
1 -22 0
1 10 -5 0
1 -10 0
1 4 0
1 12 -9 0
1 5 12 0
1 3 0
1 -43 12 0
1 18 0
1 5 0
1 5 0
1 -4 7 0
1 4 30 0
1 -7 0
1 -27 0
1 5 0
1 39 -4 0
1 31 0
1 -11 0
1 12 7 0
1 12 -36 0
1 -31 -7 0
h 3 1 0
h 44 12 0
1 -44 0
h 45 27 0
13 -45 0
h 46 -47 0
89 -46 0
h 48 -1 0
1 -48 0
h 49 47 0
82 -49 0
h 51 -1 0
1 -51 0
h 54 40 0
1 -54 0
